20
75.0
0 19 5.0 1.0
1 18 0.0 1.0
2 17 0.0 1.0
3 17 0.0 1.0
4 15 0.0 1.0
5 14 0.0 1.0
6 13 0.0 1.0
7 12 0.0 1.0
8 11 0.0 1.0
9 10 0.0 1.0
10 9 0.0 1.0
11 8 0.0 1.0
12 7 0.0 1.0
13 6 0.0 1.0
14 5 0.0 1.0
15 4 0.0 1.0
16 3 0.0 1.0
17 2 0.0 1.0
18 1 0.0 1.0
